  Job Started  at 16:20.58 26th June       2024

  Number of CPUs =   128

  Host name      = nid001986

  Total number of configurations input =      1

*  Input for Configuration =   1                                               *

  Formula = TcMn23LiO48

  Number of irreducible atoms/shells =     122

  Total number atoms/shells =     122

  Dimensionality = 3               :  Bulk

  Cartesian lattice vectors (Angstroms) :

        8.872874    0.000000    0.000000
        0.000000    9.432501    0.000000
        0.000000    0.000000    8.565761

  Cell parameters (Angstroms/Degrees):

  a =       8.8729    alpha =  90.0000
  b =       9.4325    beta  =  90.0000
  c =       8.5658    gamma =  90.0000

  Initial cell volume =         716.897611 Angs**3

  Temperature of configuration =   0.00     K

  Pressure of configuration =         0.000 GPa

  Fractional coordinates of asymmetric unit :

   No.  Atomic       x           y          z         Charge      Occupancy
        Label      (Frac)      (Frac)     (Frac)        (e)         (Frac)
      1 Tc    c    0.629539 *  0.236189 *  0.082344 *   1.97100    1.000000
      2 Mn    c    0.835959 *  0.992919 *  0.916793 *   4.00000    1.000000
      3 Mn    c    0.623630 *  0.752215 *  0.082954 *   4.00000    1.000000
      4 Mn    c    0.332805 *  0.756110 *  0.916969 *   4.00000    1.000000
      5 Mn    c    0.831194 *  0.999406 *  0.584096 *   4.00000    1.000000
      6 Mn    c    0.120777 *  0.508291 *  0.750342 *   4.00000    1.000000
      7 Mn    c    0.622187 *  0.748134 *  0.417309 *   4.00000    1.000000
      8 Mn    c    0.330654 *  0.259907 *  0.583957 *   4.00000    1.000000
      9 Mn    c    0.620043 *  0.249095 *  0.416478 *   4.00000    1.000000
     10 Mn    c    0.835483 *  0.992921 *  0.250167 *   4.00000    1.000000
     11 Mn    c    0.121338 *  0.006243 *  0.418544 *   4.00000    1.000000
     12 Mn    c    0.619649 *  0.250150 *  0.750757 *   4.00000    1.000000
     13 Mn    c    0.831559 *  0.497706 *  0.915550 *   4.00000    1.000000
     14 Mn    c    0.622214 *  0.747466 *  0.749863 *   4.00000    1.000000
     15 Mn    c    0.330777 *  0.259735 *  0.917430 *   4.00000    1.000000
     16 Mn    c    0.121421 *  0.507297 *  0.417565 *   4.00000    1.000000
     17 Mn    c    0.833187 *  0.499792 *  0.252147 *   4.00000    1.000000
     18 Mn    c    0.332663 *  0.756144 *  0.583859 *   4.00000    1.000000
     19 Mn    c    0.327145 *  0.250264 *  0.251552 *   4.00000    1.000000
     20 Mn    c    0.122963 *  0.004377 *  0.083213 *   4.00000    1.000000
     21 Mn    c    0.329382 *  0.759729 *  0.250918 *   4.00000    1.000000
     22 Mn    c    0.123366 *  0.007254 *  0.749843 *   4.00000    1.000000
     23 Mn    c    0.121151 *  0.503619 *  0.083771 *   4.00000    1.000000
     24 Mn    c    0.831407 *  0.497699 *  0.583798 *   4.00000    1.000000
     25 Li    c    0.484966 *  0.491282 *  0.187364 *   1.00000    1.000000
     26 O     c    0.030553 *  0.061135 *  0.250534 *   0.51300    1.000000
     27 O     c    0.400688 *  0.332631 *  0.088746 *   0.51300    1.000000
     28 O     c    0.517936 *  0.189214 *  0.258226 *   0.51300    1.000000
     29 O     c    0.921887 *  0.440419 *  0.084417 *   0.51300    1.000000
     30 O     c    0.248783 *  0.154469 *  0.084751 *   0.51300    1.000000
     31 O     c    0.201536 *  0.408801 *  0.253232 *   0.51300    1.000000
     32 O     c    0.759425 *  0.077836 *  0.083946 *   0.51300    1.000000
     33 O     c    0.700612 *  0.359304 *  0.267048 *   0.51300    1.000000
     34 O     c    0.029081 *  0.563947 *  0.249207 *   0.51300    1.000000
     35 O     c    0.425786 *  0.812755 *  0.085802 *   0.51300    1.000000
     36 O     c    0.528124 *  0.681660 *  0.247639 *   0.51300    1.000000
     37 O     c    0.931646 *  0.932943 *  0.084125 *   0.51300    1.000000
     38 O     c    0.253974 *  0.655339 *  0.086141 *   0.51300    1.000000
     39 O     c    0.205529 *  0.907812 *  0.251415 *   0.51300    1.000000
     40 O     c    0.744807 *  0.595749 *  0.085483 *   0.51300    1.000000
     41 O     c    0.703386 *  0.843171 *  0.250708 *   0.51300    1.000000
     42 O     c    0.028721 *  0.062721 *  0.583958 *   0.51300    1.000000
     43 O     c    0.419600 *  0.319536 *  0.415076 *   0.51300    1.000000
     44 O     c    0.526717 *  0.194834 *  0.582884 *   0.51300    1.000000
     45 O     c    0.926883 *  0.443961 *  0.418000 *   0.51300    1.000000
     46 O     c    0.247155 *  0.157035 *  0.418420 *   0.51300    1.000000
     47 O     c    0.203238 *  0.410338 *  0.583385 *   0.51300    1.000000
     48 O     c    0.749417 *  0.095749 *  0.415046 *   0.51300    1.000000
     49 O     c    0.704333 *  0.346715 *  0.582624 *   0.51300    1.000000
     50 O     c    0.029948 *  0.566153 *  0.583249 *   0.51300    1.000000
     51 O     c    0.426802 *  0.811264 *  0.414919 *   0.51300    1.000000
     52 O     c    0.528576 *  0.691670 *  0.582956 *   0.51300    1.000000
     53 O     c    0.925177 *  0.940386 *  0.418021 *   0.51300    1.000000
     54 O     c    0.250712 *  0.659178 *  0.415510 *   0.51300    1.000000
     55 O     c    0.206262 *  0.907697 *  0.582994 *   0.51300    1.000000
     56 O     c    0.749143 *  0.599408 *  0.417449 *   0.51300    1.000000
     57 O     c    0.703443 *  0.847345 *  0.583150 *   0.51300    1.000000
     58 O     c    0.030314 *  0.060462 *  0.917017 *   0.51300    1.000000
     59 O     c    0.420958 *  0.318861 *  0.749266 *   0.51300    1.000000
     60 O     c    0.517030 *  0.191627 *  0.909809 *   0.51300    1.000000
     61 O     c    0.927306 *  0.444868 *  0.748977 *   0.51300    1.000000
     62 O     c    0.247242 *  0.159234 *  0.749153 *   0.51300    1.000000
     63 O     c    0.200207 *  0.409250 *  0.915248 *   0.51300    1.000000
     64 O     c    0.748694 *  0.094707 *  0.750909 *   0.51300    1.000000
     65 O     c    0.708247 *  0.352451 *  0.899202 *   0.51300    1.000000
     66 O     c    0.028337 *  0.563931 *  0.919195 *   0.51300    1.000000
     67 O     c    0.426037 *  0.811466 *  0.750562 *   0.51300    1.000000
     68 O     c    0.529087 *  0.691675 *  0.919159 *   0.51300    1.000000
     69 O     c    0.926290 *  0.940663 *  0.749141 *   0.51300    1.000000
     70 O     c    0.249781 *  0.659068 *  0.751080 *   0.51300    1.000000
     71 O     c    0.206505 *  0.906228 *  0.917484 *   0.51300    1.000000
     72 O     c    0.749285 *  0.598768 *  0.749080 *   0.51300    1.000000
     73 O     c    0.705902    0.844041    0.916685     0.51300    1.000000
     74 Tc    s    0.629539 *  0.236189 *  0.082344 *   1.02900    1.000000
     75 O     s    0.030553 *  0.061135 *  0.250534 *  -2.51300    1.000000
     76 O     s    0.400688 *  0.332631 *  0.088746 *  -2.51300    1.000000
     77 O     s    0.517936 *  0.189214 *  0.258226 *  -2.51300    1.000000
     78 O     s    0.921887 *  0.440419 *  0.084417 *  -2.51300    1.000000
     79 O     s    0.248783 *  0.154469 *  0.084751 *  -2.51300    1.000000
     80 O     s    0.201536 *  0.408801 *  0.253232 *  -2.51300    1.000000
     81 O     s    0.759425 *  0.077836 *  0.083946 *  -2.51300    1.000000
     82 O     s    0.700612 *  0.359304 *  0.267048 *  -2.51300    1.000000
     83 O     s    0.029081 *  0.563947 *  0.249207 *  -2.51300    1.000000
     84 O     s    0.425786 *  0.812755 *  0.085802 *  -2.51300    1.000000
     85 O     s    0.528124 *  0.681660 *  0.247639 *  -2.51300    1.000000
     86 O     s    0.931646 *  0.932943 *  0.084125 *  -2.51300    1.000000
     87 O     s    0.253974 *  0.655339 *  0.086141 *  -2.51300    1.000000
     88 O     s    0.205529 *  0.907812 *  0.251415 *  -2.51300    1.000000
     89 O     s    0.744807 *  0.595749 *  0.085483 *  -2.51300    1.000000
     90 O     s    0.703386 *  0.843171 *  0.250708 *  -2.51300    1.000000
     91 O     s    0.028721 *  0.062721 *  0.583958 *  -2.51300    1.000000
     92 O     s    0.419600 *  0.319536 *  0.415076 *  -2.51300    1.000000
     93 O     s    0.526717 *  0.194834 *  0.582884 *  -2.51300    1.000000
     94 O     s    0.926883 *  0.443961 *  0.418000 *  -2.51300    1.000000
     95 O     s    0.247155 *  0.157035 *  0.418420 *  -2.51300    1.000000
     96 O     s    0.203238 *  0.410338 *  0.583385 *  -2.51300    1.000000
     97 O     s    0.749417 *  0.095749 *  0.415046 *  -2.51300    1.000000
     98 O     s    0.704333 *  0.346715 *  0.582624 *  -2.51300    1.000000
     99 O     s    0.029948 *  0.566153 *  0.583249 *  -2.51300    1.000000
    100 O     s    0.426802 *  0.811264 *  0.414919 *  -2.51300    1.000000
    101 O     s    0.528576 *  0.691670 *  0.582956 *  -2.51300    1.000000
    102 O     s    0.925177 *  0.940386 *  0.418021 *  -2.51300    1.000000
    103 O     s    0.250712 *  0.659178 *  0.415510 *  -2.51300    1.000000
    104 O     s    0.206262 *  0.907697 *  0.582994 *  -2.51300    1.000000
    105 O     s    0.749143 *  0.599408 *  0.417449 *  -2.51300    1.000000
    106 O     s    0.703443 *  0.847345 *  0.583150 *  -2.51300    1.000000
    107 O     s    0.030314 *  0.060462 *  0.917017 *  -2.51300    1.000000
    108 O     s    0.420958 *  0.318861 *  0.749266 *  -2.51300    1.000000
    109 O     s    0.517030 *  0.191627 *  0.909809 *  -2.51300    1.000000
    110 O     s    0.927306 *  0.444868 *  0.748977 *  -2.51300    1.000000
    111 O     s    0.247242 *  0.159234 *  0.749153 *  -2.51300    1.000000
    112 O     s    0.200207 *  0.409250 *  0.915248 *  -2.51300    1.000000
    113 O     s    0.748694 *  0.094707 *  0.750909 *  -2.51300    1.000000
    114 O     s    0.708247 *  0.352451 *  0.899202 *  -2.51300    1.000000
    115 O     s    0.028337 *  0.563931 *  0.919195 *  -2.51300    1.000000
    116 O     s    0.426037 *  0.811466 *  0.750562 *  -2.51300    1.000000
    117 O     s    0.529087 *  0.691675 *  0.919159 *  -2.51300    1.000000
    118 O     s    0.926290 *  0.940663 *  0.749141 *  -2.51300    1.000000
    119 O     s    0.249781 *  0.659068 *  0.751080 *  -2.51300    1.000000
    120 O     s    0.206505 *  0.906228 *  0.917484 *  -2.51300    1.000000
    121 O     s    0.749285 *  0.598768 *  0.749080 *  -2.51300    1.000000
    122 O     s    0.705902 *  0.844041 *  0.916685 *  -2.51300    1.000000

  Brillouin zone sampling points :

  Point number          x          y          z            Weight
        1           0.000000   0.000000   0.000000     1.00000000

*  General input information                                                   *

  Species output for all configurations :

  Species    Type    Atomic    Atomic    Charge       Radii (Angs)     Library
                     Number     Mass       (e)     Cova   Ionic  VDW   Symbol
    Tc       Core       43      98.00   1.971000   1.350  0.000  2.010
    Tc       Shell      43       0.00   1.029000   1.350  0.000  0.000
    Mn       Core       25      54.94   4.000000   1.350  0.000  2.010
    O        Core        8      16.00   0.513000   0.730  0.000  1.360
    O        Shell       8       0.00  -2.513000   0.730  0.000  0.000
[...]
            y      -0.0590     -0.5531     -0.0061
            z      -0.0214      0.0041     -0.8106
   38 O     x      -1.1038     -0.5014     -0.0613
            y      -0.4206     -1.3064      0.0244
            z      -0.0316      0.0062     -1.5851
   39 O     x      -0.8902      0.2696      0.0168
            y       0.2490     -1.0327     -0.0254
            z       0.0324     -0.0211     -1.6017
   40 O     x      -1.1235      0.5397      0.1319
            y       0.3886     -1.1456     -0.0295
            z       0.0926     -0.0355     -1.7208
   41 O     x      -1.0385     -0.4151     -0.0035
            y      -0.3916     -1.1083     -0.0362
            z      -0.0031     -0.0471     -1.3998
   42 O     x      -1.3594     -0.2005     -0.0196
            y      -0.0112     -0.6122      0.0040
            z      -0.0291     -0.0048     -0.5980
   43 O     x      -1.6353      0.2144     -0.0765
            y       0.0816     -0.7504      0.0959
            z      -0.0622      0.0348     -0.7635
   44 O     x      -1.4761      0.2854     -0.0629
            y       0.0677     -0.6642      0.0186
            z      -0.0807      0.0048     -0.6476
   45 O     x      -1.2852     -0.1811      0.0118
            y       0.0115     -0.5865     -0.0026
            z       0.0068      0.0219     -0.6175
   46 O     x      -0.9644     -0.4444     -0.1702
            y      -0.3547     -1.1528     -0.1593
            z      -0.1172     -0.1935     -1.4345
   47 O     x      -0.9658      0.3859      0.0469
            y       0.3302     -1.1357     -0.0135
            z       0.0312     -0.0291     -1.5188
   48 O     x      -1.0907      0.5350      0.0716
            y       0.4430     -1.3148     -0.0878
            z       0.0924     -0.1364     -1.5824
   49 O     x      -1.0566     -0.4505     -0.0228
            y      -0.3586     -1.2375     -0.0068
            z      -0.0317     -0.0392     -1.3788
   50 O     x      -1.5049     -0.2304     -0.0155
            y      -0.0380     -0.6222      0.0011
            z       0.0041      0.0041     -0.6387
   51 O     x      -1.3787      0.2077      0.0715
            y       0.0062     -0.6289     -0.0219
            z       0.0611     -0.0191     -0.7025
   52 O     x      -1.3574      0.1821     -0.0064
            y      -0.0051     -0.6216     -0.0209
            z       0.0029     -0.0087     -0.6883
   53 O     x      -1.4353     -0.1833      0.0528
            y      -0.0012     -0.6513     -0.0152
            z       0.1147     -0.0501     -0.6636
   54 O     x      -1.0746     -0.4521      0.0453
            y      -0.3781     -1.2286     -0.0397
            z       0.0132     -0.0173     -1.5391
   55 O     x      -1.0308      0.4759      0.0341
            y       0.4028     -1.1903     -0.0392
            z       0.0135     -0.0529     -1.5415
   56 O     x      -1.0741      0.4137     -0.0376
            y       0.3716     -1.1337     -0.0034
            z      -0.0419      0.0257     -1.5748
   57 O     x      -1.0298     -0.4603      0.0682
            y      -0.4019     -1.1961      0.0720
            z       0.0452      0.0781     -1.4464
   58 O     x      -1.3028     -0.1771     -0.0285
            y      -0.0012     -0.6048      0.0147
            z      -0.0116      0.0298     -0.6400
   59 O     x      -1.4878      0.2353      0.1132
            y       0.0743     -0.6554      0.0003
            z       0.0754      0.0394     -0.6141
   60 O     x      -1.2131      0.1397     -0.0402
            y       0.0222     -0.6702     -0.0748
            z      -0.0262     -0.0796     -0.8744
   61 O     x      -1.2016     -0.1553     -0.0058
            y       0.0297     -0.5911     -0.0180
            z      -0.0171     -0.0197     -0.6399
   62 O     x      -0.9748     -0.4711      0.0238
            y      -0.3816     -1.2240      0.0067
            z       0.0251      0.0269     -1.6062
   63 O     x      -0.9896      0.4150      0.0173
            y       0.3616     -1.1829     -0.0171
            z       0.0149      0.0058     -1.5137
   64 O     x      -1.1799      0.6642     -0.1744
            y       0.5368     -1.4208      0.1807
            z      -0.1356      0.2089     -1.5383
   65 O     x      -0.9451     -0.1815      0.0708
            y      -0.1709     -1.0168      0.0190
            z       0.0586      0.0793     -1.3007
   66 O     x      -1.4572     -0.2052      0.0433
            y       0.0057     -0.6152     -0.0210
            z       0.0302     -0.0102     -0.6836
   67 O     x      -1.3802      0.1948      0.0015
            y       0.0091     -0.6073      0.0038
            z       0.0083      0.0082     -0.6702
   68 O     x      -1.3385      0.1954      0.0215
            y      -0.0144     -0.6001      0.0293
            z       0.0198      0.0293     -0.7047
   69 O     x      -1.4686     -0.1892     -0.0463
            y       0.0479     -0.6402      0.0219
            z      -0.1167      0.0540     -0.6337
   70 O     x      -1.0332     -0.4429      0.0024
            y      -0.3661     -1.1633      0.0083
            z       0.0160      0.0175     -1.5692
   71 O     x      -1.0045      0.4615     -0.0599
            y       0.3793     -1.1626      0.0769
            z      -0.0530      0.0819     -1.6240
   72 O     x      -0.9990      0.3869     -0.0358
            y       0.3460     -1.1155      0.0084
            z      -0.0201      0.0053     -1.6080
   73 O     x      -0.9792     -0.3790     -0.0493
            y      -0.3533     -1.0831     -0.0126
            z      -0.0377     -0.0104     -1.4373

  Elastic Constant Matrix: (Units=GPa)

  Indices      1         2         3         4         5         6
       1    440.1969  177.9607  259.6076    1.2775    1.4502   11.8473
       2    177.9607  271.8107  163.1570    1.2329    1.0228    7.3604
       3    259.6076  163.1570  846.0526    1.5757    3.2005    3.2803
       4      1.2775    1.2329    1.5757   88.0841    4.3794    0.2167
       5      1.4502    1.0228    3.2005    4.3794  168.4753    0.3424
       6     11.8473    7.3604    3.2803    0.2167    0.3424  115.8632

  Elastic Compliance Matrix: (Units=1/GPa)

  Indices      1         2         3         4         5         6
       1    0.003424 -0.001816 -0.000700 -0.000011 -0.000004 -0.000215
       2   -0.001816  0.005131 -0.000432 -0.000037 -0.000006 -0.000128
       3   -0.000700 -0.000432  0.001480 -0.000009 -0.000019  0.000057
       4   -0.000011 -0.000037 -0.000009  0.011368 -0.000295 -0.000017
       5   -0.000004 -0.000006 -0.000019 -0.000295  0.005944 -0.000016
       6   -0.000215 -0.000128  0.000057 -0.000017 -0.000016  0.008659

  Mechanical properties :

  Convention :                    Reuss         Voigt         Hill
  Bulk  Modulus (GPa)     =     241.53632     306.61231     274.07431
  Shear Modulus (GPa)     =     115.52321     138.30686     126.91503
  Velocity S-wave (km/s)  =       4.83145       5.28646       5.06407
  Velocity P-wave (km/s)  =       8.94032       9.96078       9.46431
  Compressibility (1/GPa) =    0.00414016
  Stress axis :                     x             y             z
  Youngs Moduli (GPa)     =     292.02219     194.89994     675.79325
  Poissons Ratio (x)      =                     0.35397       0.47282
  Poissons Ratio (y)      =       0.53036                     0.29166
  Poissons Ratio (z)      =       0.20431       0.08412

  Piezoelectric Strain Matrix: (Units=C/m**2)

  Indices      1         2         3         4         5         6
       x     1.12445   0.43256   1.64602  -0.01234  -0.20129  -1.00056
       y    -1.22184  -0.70087   1.66487   0.03931  -0.06091   0.38333
       z    -0.00280   0.14511   0.02282  -0.18932   1.74490   0.02491

  Piezoelectric Stress Matrix: (Units=10**-11 C/N)

  Indices      1         2         3         4         5         6
       x     0.21294  -0.04035   0.14091  -0.01082  -0.12166  -0.88639
       y    -0.41585  -0.21456   0.36436   0.04821  -0.04021   0.37671
       z    -0.03001   0.07330  -0.00574  -0.26729   1.04254   0.01749

  Static dielectric constant tensor :

              x         y         z
       x     7.93261  -0.25407  -0.00391
       y    -0.25407   5.86284  -0.05444
       z    -0.00391  -0.05444   6.71268

  High frequency dielectric constant tensor :

              x         y         z
       x     4.62369  -0.03329   0.00239
       y    -0.03329   3.83790  -0.00740
       z     0.00239  -0.00740   4.20288

  Static refractive indices :

    1 =    2.41428      2 =    2.59153      3 =    2.82194

  High frequency refractive indices :

    1 =    1.95866      2 =    2.05012      3 =    2.15061

  Phonon Calculation :

  Number of k points for this configuration =        1

  K point      1 =   0.000000  0.000000  0.000000  Weight =    1.000

  Frequencies (cm-1) [NB: Negative implies an imaginary mode]:

   -0.00   -0.00    0.00   78.50  103.86  121.16  129.36  132.59  146.51
  153.25  155.55  160.44  162.85  163.61  164.48  167.24  167.41  173.51
  175.91  176.58  179.37  180.18  181.64  183.31  183.79  184.90  186.40
  187.87  192.04  195.24  196.23  196.92  200.22  200.87  202.19  202.98
  204.18  205.58  210.67  211.87  214.66  217.95  220.24  221.63  223.71
  226.41  231.39  233.21  241.56  243.73  250.67  252.17  255.38  259.70
  264.25  266.81  272.64  281.42  283.18  286.41  287.43  291.06  291.89
  295.28  298.43  301.97  307.64  309.23  312.87  320.96  325.20  327.84
  332.05  340.15  342.63  345.44  349.91  352.62  356.42  358.01  360.63
  365.35  367.47  371.80  375.73  378.15  380.66  381.89  384.98  386.99
  395.09  399.83  401.65  404.85  410.89  413.17  415.43  418.34  420.38
  422.62  423.80  426.55  428.61  430.27  432.17  433.81  436.07  438.60
  439.44  440.01  442.60  444.39  445.70  447.15  448.13  449.25  450.15
  451.70  454.13  455.17  459.90  462.88  464.04  466.58  467.73  469.15
  469.78  471.34  472.65  475.47  477.01  478.34  481.23  481.61  482.66
  484.49  486.34  486.80  488.16  489.00  493.50  494.77  496.42  497.84
  499.58  506.02  513.23  518.67  537.94  539.80  544.60  547.33  548.02
  550.62  551.60  552.99  554.89  556.32  557.11  559.42  561.02  562.08
  563.32  564.67  567.44  568.51  571.28  572.67  574.70  574.95  578.52
  578.99  580.40  580.84  584.44  586.85  587.83  588.63  589.58  592.07
  594.28  595.30  596.59  598.05  599.69  603.00  604.66  609.85  612.09
  614.30  615.26  617.00  618.97  622.44  623.66  625.64  630.98  633.81
  642.80  650.86  663.90  670.46  676.89  678.38  682.57  688.50  690.15
  694.62  697.55  698.86  702.96  704.21  709.18  710.44  711.47  715.19
  722.66  724.37  734.99

  Phonon properties (per mole of unit cells): Temperature =      0.000 K
  Zero point energy             =        5.687083 eV

  Phonon density of states :

 Frequency (cm-1) Density of States
    0.00000 |******                                                        0.005
   11.48425 |                                                              0.000
   22.96849 |                                                              0.000
   34.45274 |                                                              0.000
   45.93698 |                                                              0.000
   57.42123 |                                                              0.000
   68.90547 |******                                                        0.005
   80.38972 |                                                              0.000
   91.87396 |                                                              0.000
  103.35821 |******                                                        0.005
  114.84246 |******                                                        0.005
  126.32670 |*************                                                 0.009
  137.81095 |******                                                        0.005
  149.29519 |********************                                          0.014
  160.77944 |*********************************                             0.023
  172.26368 |**********************************************                0.032
  183.74793 |*********************************                             0.023
  195.23217 |************************************************************  0.041
  206.71642 |**************************                                    0.018
  218.20067 |**************************                                    0.018
  229.68491 |*************                                                 0.009
  241.16916 |**************************                                    0.018
  252.65340 |*************                                                 0.009
  264.13765 |********************                                          0.014
  275.62189 |********************                                          0.014
  287.10614 |*********************************                             0.023
  298.59038 |********************                                          0.014
  310.07463 |*************                                                 0.009
  321.55888 |********************                                          0.014
  333.04312 |*************                                                 0.009
  344.52737 |********************                                          0.014
  356.01161 |*********************************                             0.023
  367.49586 |********************                                          0.014
  378.98010 |**************************                                    0.018
  390.46435 |********************                                          0.014
  401.94859 |********************                                          0.014
  413.43284 |*********************************                             0.023
  424.91709 |****************************************                      0.028
  436.40133 |**********************************************                0.032
  447.88558 |****************************************                      0.028
  459.36982 |**********************************************                0.032
  470.85407 |**********************************************                0.032
  482.33831 |**********************************************                0.032
  493.82256 |**************************                                    0.018
  505.30681 |*************                                                 0.009
  516.79105 |******                                                        0.005
  528.27530 |******                                                        0.005
  539.75954 |*********************************                             0.023
  551.24379 |*****************************************************         0.037
  562.72803 |****************************************                      0.028
  574.21228 |**********************************************                0.032
  585.69652 |*****************************************************         0.037
  597.18077 |**************************                                    0.018
  608.66502 |****************************************                      0.028
  620.14926 |**************************                                    0.018
  631.63351 |*************                                                 0.009
  643.11775 |******                                                        0.005
  654.60200 |******                                                        0.005
  666.08624 |*************                                                 0.009
  677.57049 |********************                                          0.014
  689.05473 |**************************                                    0.018
  700.53898 |*********************************                             0.023
  712.02323 |*************                                                 0.009
  723.50747 |*************                                                 0.009

  Time to end of optimisation =       0.9205 seconds

  Timing analysis for GULP :

  Task / Subroutine                                          Time (Seconds)
  Calculation of reciprocal space energy and derivatives          0.0335
  Calculation of real space energy and derivatives                0.0754
  Calculation of phonons                                          0.1061
  Calculation and manipulation of Hessian matrix                  0.0058
  Calculation of matrix diagonalisation                           0.0714
  Calculation of matrix inversion                                 0.3405
  Global summation overhead                                       0.0724

  Job Finished at 16:20.59 26th June       2024