  Job Started  at 16:21.02 26th June       2024

  Number of CPUs =   128

  Host name      = nid001986

  Total number of configurations input =      1

*  Input for Configuration =   1 : CeO2                                        *

  Formula = La2Ce178O359

  Number of irreducible atoms/shells =    1078

  Total number atoms/shells =    1078

  Dimensionality = 3               :  Bulk

  Cartesian lattice vectors (Angstroms) :

       19.073999    0.000000    0.000000
        0.000000   19.822500    0.000000
        0.000000    0.000000   18.688801

  Cell parameters (Angstroms/Degrees):

  a =      19.0740    alpha =  90.0000
  b =      19.8225    beta  =  90.0000
  c =      18.6888    gamma =  90.0000

  Initial cell volume =        7066.130137 Angs**3

  Temperature of configuration =   0.00     K

  Pressure of configuration =         0.000 GPa

  Fractional coordinates of asymmetric unit :

   No.  Atomic       x           y          z         Charge      Occupancy
        Label      (Frac)      (Frac)     (Frac)        (e)         (Frac)
      1 La    c    0.200000 *  0.666667 *  0.000000 *  -6.94525    1.000000
      2 La    c    0.200000 *  0.222223 *  0.333335 *  -6.94525    1.000000
      3 Ce    c    0.800000 *  0.888890 *  0.833335 *  -9.85000    1.000000
      4 Ce    c    0.500000 *  0.833333 *  0.000000 *  -9.85000    1.000000
      5 Ce    c    0.800000 *  0.777777 *  0.166665 *  -9.85000    1.000000
      6 Ce    c    0.600000 *  0.222223 *  0.833335 *  -9.85000    1.000000
      7 Ce    c    0.000000 *  0.000000 *  0.000000 *  -9.85000    1.000000
      8 Ce    c    0.000000 *  0.333333 *  0.000000 *  -9.85000    1.000000
      9 Ce    c    0.200000 *  0.222223 *  0.833335 *  -9.85000    1.000000
     10 Ce    c    0.200000 *  0.333333 *  0.000000 *  -9.85000    1.000000
     11 Ce    c    0.500000 *  0.277777 *  0.666665 *  -9.85000    1.000000
     12 Ce    c    0.600000 *  0.222223 *  0.333335 *  -9.85000    1.000000
     13 Ce    c    0.900000 *  0.611110 *  0.166665 *  -9.85000    1.000000
     14 Ce    c    0.100000 *  0.722223 *  0.833335 *  -9.85000    1.000000
     15 Ce    c    0.900000 *  0.277777 *  0.166665 *  -9.85000    1.000000
     16 Ce    c    0.800000 *  0.555557 *  0.333335 *  -9.85000    1.000000
     17 Ce    c    0.500000 *  0.500000 *  0.500000 *  -9.85000    1.000000
     18 Ce    c    0.300000 *  0.166667 *  0.000000 *  -9.85000    1.000000
     19 Ce    c    0.300000 *  0.944443 *  0.166665 *  -9.85000    1.000000
     20 Ce    c    0.800000 *  0.444443 *  0.666665 *  -9.85000    1.000000
     21 Ce    c    0.800000 *  0.000000 *  0.500000 *  -9.85000    1.000000
     22 Ce    c    0.400000 *  0.000000 *  0.500000 *  -9.85000    1.000000
     23 Ce    c    0.000000 *  0.333333 *  0.500000 *  -9.85000    1.000000
     24 Ce    c    0.200000 *  0.666667 *  0.500000 *  -9.85000    1.000000
     25 Ce    c    0.500000 *  0.277777 *  0.166665 *  -9.85000    1.000000
     26 Ce    c    0.700000 *  0.833333 *  0.000000 *  -9.85000    1.000000
     27 Ce    c    0.400000 *  0.888890 *  0.833335 *  -9.85000    1.000000
     28 Ce    c    0.900000 *  0.166667 *  0.500000 *  -9.85000    1.000000
     29 Ce    c    0.900000 *  0.277777 *  0.666665 *  -9.85000    1.000000
     30 Ce    c    0.800000 *  0.888890 *  0.333335 *  -9.85000    1.000000
     31 Ce    c    0.400000 *  0.444443 *  0.666665 *  -9.85000    1.000000
     32 Ce    c    0.100000 *  0.722223 *  0.333335 *  -9.85000    1.000000
     33 Ce    c    0.000000 *  0.555557 *  0.333335 *  -9.85000    1.000000
     34 Ce    c    0.300000 *  0.722223 *  0.833335 *  -9.85000    1.000000
     35 Ce    c    0.700000 *  0.833333 *  0.500000 *  -9.85000    1.000000
     36 Ce    c    0.700000 *  0.277777 *  0.166665 *  -9.85000    1.000000
     37 Ce    c    0.400000 *  0.666667 *  0.500000 *  -9.85000    1.000000
     38 Ce    c    0.000000 *  0.666667 *  0.500000 *  -9.85000    1.000000
     39 Ce    c    0.600000 *  0.888890 *  0.333335 *  -9.85000    1.000000
     40 Ce    c    0.200000 *  0.444443 *  0.666665 *  -9.85000    1.000000
     41 Ce    c    0.900000 *  0.388890 *  0.333335 *  -9.85000    1.000000
     42 Ce    c    0.100000 *  0.944443 *  0.666665 *  -9.85000    1.000000
     43 Ce    c    0.700000 *  0.611110 *  0.666665 *  -9.85000    1.000000
     44 Ce    c    0.500000 *  0.055557 *  0.333335 *  -9.85000    1.000000
     45 Ce    c    0.000000 *  0.555557 *  0.833335 *  -9.85000    1.000000
     46 Ce    c    0.800000 *  0.444443 *  0.166665 *  -9.85000    1.000000
     47 Ce    c    0.900000 *  0.500000 *  0.000000 *  -9.85000    1.000000
     48 Ce    c    0.600000 *  0.666667 *  0.500000 *  -9.85000    1.000000
     49 Ce    c    0.900000 *  0.722223 *  0.333335 *  -9.85000    1.000000
     50 Ce    c    0.200000 *  0.777777 *  0.166665 *  -9.85000    1.000000
     51 Ce    c    0.500000 *  0.166667 *  0.500000 *  -9.85000    1.000000
     52 Ce    c    0.900000 *  0.388890 *  0.833335 *  -9.85000    1.000000
     53 Ce    c    0.000000 *  0.222223 *  0.833335 *  -9.85000    1.000000
     54 Ce    c    0.000000 *  0.111110 *  0.166665 *  -9.85000    1.000000
     55 Ce    c    0.200000 *  0.111110 *  0.166665 *  -9.85000    1.000000
     56 Ce    c    0.000000 *  0.222223 *  0.333335 *  -9.85000    1.000000
     57 Ce    c    0.100000 *  0.166667 *  0.000000 *  -9.85000    1.000000
     58 Ce    c    0.000000 *  0.777777 *  0.166665 *  -9.85000    1.000000
     59 Ce    c    0.800000 *  0.777777 *  0.666665 *  -9.85000    1.000000
     60 Ce    c    0.900000 *  0.722223 *  0.833335 *  -9.85000    1.000000
[...]
    525 O     c    0.600000 *  0.222223 *  0.458335 *   0.93635    1.000000
    526 O     c    0.500000 *  0.277777 *  0.791665 *   0.93635    1.000000
    527 O     c    0.200000 *  0.222223 *  0.208335 *   0.93635    1.000000
    528 O     c    0.600000 *  0.222223 *  0.208335 *   0.93635    1.000000
    529 O     c    0.000000 *  0.111110 *  0.291665 *   0.93635    1.000000
    530 O     c    0.000000 *  0.555557 *  0.958335 *   0.93635    1.000000
    531 O     c    0.800000 *  0.000000 *  0.125000 *   0.93635    1.000000
    532 O     c    0.400000 *  0.000000 *  0.375000 *   0.93635    1.000000
    533 O     c    0.400000 *  0.111110 *  0.541665 *   0.93635    1.000000
    534 O     c    0.400000 *  0.444443 *  0.541665 *   0.93635    1.000000
    535 O     c    0.600000 *  0.888890 *  0.708335 *   0.93635    1.000000
    536 O     c    0.400000 *  0.333333 *  0.875000 *   0.93635    1.000000
    537 O     c    0.900000 *  0.500000 *  0.125000 *   0.93635    1.000000
    538 O     c    0.000000 *  0.777777 *  0.291665 *   0.93635    1.000000
    539 O     c    0.400000 *  0.888890 *  0.958335 *   0.93635    1.000000
    540 La    s    0.200000 *  0.666667 *  0.000000 *   9.94525    1.000000
    541 La    s    0.200000 *  0.222223 *  0.333335 *   9.94525    1.000000
    542 Ce    s    0.800000 *  0.888890 *  0.833335 *  13.85000    1.000000
    543 Ce    s    0.500000 *  0.833333 *  0.000000 *  13.85000    1.000000
    544 Ce    s    0.800000 *  0.777777 *  0.166665 *  13.85000    1.000000
    545 Ce    s    0.600000 *  0.222223 *  0.833335 *  13.85000    1.000000
    546 Ce    s    0.000000 *  0.000000 *  0.000000 *  13.85000    1.000000
    547 Ce    s    0.000000 *  0.333333 *  0.000000 *  13.85000    1.000000
    548 Ce    s    0.200000 *  0.222223 *  0.833335 *  13.85000    1.000000
    549 Ce    s    0.200000 *  0.333333 *  0.000000 *  13.85000    1.000000
    550 Ce    s    0.500000 *  0.277777 *  0.666665 *  13.85000    1.000000
    551 Ce    s    0.600000 *  0.222223 *  0.333335 *  13.85000    1.000000
    552 Ce    s    0.900000 *  0.611110 *  0.166665 *  13.85000    1.000000
    553 Ce    s    0.100000 *  0.722223 *  0.833335 *  13.85000    1.000000
    554 Ce    s    0.900000 *  0.277777 *  0.166665 *  13.85000    1.000000
    555 Ce    s    0.800000 *  0.555557 *  0.333335 *  13.85000    1.000000
    556 Ce    s    0.500000 *  0.500000 *  0.500000 *  13.85000    1.000000
    557 Ce    s    0.300000 *  0.166667 *  0.000000 *  13.85000    1.000000
    558 Ce    s    0.300000 *  0.944443 *  0.166665 *  13.85000    1.000000
    559 Ce    s    0.800000 *  0.444443 *  0.666665 *  13.85000    1.000000
    560 Ce    s    0.800000 *  0.000000 *  0.500000 *  13.85000    1.000000
    561 Ce    s    0.400000 *  0.000000 *  0.500000 *  13.85000    1.000000
    562 Ce    s    0.000000 *  0.333333 *  0.500000 *  13.85000    1.000000
    563 Ce    s    0.200000 *  0.666667 *  0.500000 *  13.85000    1.000000
    564 Ce    s    0.500000 *  0.277777 *  0.166665 *  13.85000    1.000000
    565 Ce    s    0.700000 *  0.833333 *  0.000000 *  13.85000    1.000000
    566 Ce    s    0.400000 *  0.888890 *  0.833335 *  13.85000    1.000000
    567 Ce    s    0.900000 *  0.166667 *  0.500000 *  13.85000    1.000000
    568 Ce    s    0.900000 *  0.277777 *  0.666665 *  13.85000    1.000000
    569 Ce    s    0.800000 *  0.888890 *  0.333335 *  13.85000    1.000000
    570 Ce    s    0.400000 *  0.444443 *  0.666665 *  13.85000    1.000000
    571 Ce    s    0.100000 *  0.722223 *  0.333335 *  13.85000    1.000000
    572 Ce    s    0.000000 *  0.555557 *  0.333335 *  13.85000    1.000000
    573 Ce    s    0.300000 *  0.722223 *  0.833335 *  13.85000    1.000000
    574 Ce    s    0.700000 *  0.833333 *  0.500000 *  13.85000    1.000000
    575 Ce    s    0.700000 *  0.277777 *  0.166665 *  13.85000    1.000000
    576 Ce    s    0.400000 *  0.666667 *  0.500000 *  13.85000    1.000000
    577 Ce    s    0.000000 *  0.666667 *  0.500000 *  13.85000    1.000000
    578 Ce    s    0.600000 *  0.888890 *  0.333335 *  13.85000    1.000000
    579 Ce    s    0.200000 *  0.444443 *  0.666665 *  13.85000    1.000000
    580 Ce    s    0.900000 *  0.388890 *  0.333335 *  13.85000    1.000000
    581 Ce    s    0.100000 *  0.944443 *  0.666665 *  13.85000    1.000000
    582 Ce    s    0.700000 *  0.611110 *  0.666665 *  13.85000    1.000000
    583 Ce    s    0.500000 *  0.055557 *  0.333335 *  13.85000    1.000000
    584 Ce    s    0.000000 *  0.555557 *  0.833335 *  13.85000    1.000000
    585 Ce    s    0.800000 *  0.444443 *  0.166665 *  13.85000    1.000000
    586 Ce    s    0.900000 *  0.500000 *  0.000000 *  13.85000    1.000000
    587 Ce    s    0.600000 *  0.666667 *  0.500000 *  13.85000    1.000000
    588 Ce    s    0.900000 *  0.722223 *  0.333335 *  13.85000    1.000000
    589 Ce    s    0.200000 *  0.777777 *  0.166665 *  13.85000    1.000000
    590 Ce    s    0.500000 *  0.166667 *  0.500000 *  13.85000    1.000000
    591 Ce    s    0.900000 *  0.388890 *  0.833335 *  13.85000    1.000000
    592 Ce    s    0.000000 *  0.222223 *  0.833335 *  13.85000    1.000000
    593 Ce    s    0.000000 *  0.111110 *  0.166665 *  13.85000    1.000000
    594 Ce    s    0.200000 *  0.111110 *  0.166665 *  13.85000    1.000000
    595 Ce    s    0.000000 *  0.222223 *  0.333335 *  13.85000    1.000000
    596 Ce    s    0.100000 *  0.166667 *  0.000000 *  13.85000    1.000000
    597 Ce    s    0.000000 *  0.777777 *  0.166665 *  13.85000    1.000000
[...]
  434 O     x      -2.7335      0.0052     -0.0042
            y       0.0051     -2.7196      0.0031
            z      -0.0054      0.0060     -2.7129
  435 O     x      -2.7145      0.0149     -0.0116
            y       0.0161     -2.7160      0.0008
            z      -0.0103      0.0026     -2.7332
  436 O     x      -2.7106     -0.0016     -0.0015
            y       0.0004     -2.7230     -0.0066
            z      -0.0004     -0.0074     -2.7325
  437 O     x      -2.7058     -0.0031      0.0023
            y      -0.0048     -2.7342     -0.0107
            z       0.0037     -0.0095     -2.7295
  438 O     x      -2.7257      0.0251     -0.0088
            y       0.0586     -2.7156      0.0261
            z       0.0033      0.0066     -2.6959
  439 O     x      -2.7136      0.0348     -0.0162
            y       0.0319     -2.7381     -0.0037
            z      -0.0430     -0.0208     -2.7230
  440 O     x      -2.7110      0.0075     -0.0011
            y       0.0044     -2.7135     -0.0012
            z      -0.0033     -0.0021     -2.7403
  441 O     x      -2.9777      0.1262     -0.1532
            y       0.0165     -2.6070      0.0304
            z      -0.2286      0.0725     -2.7521
  442 O     x      -2.9931     -0.0244      0.0030
            y       0.0115     -3.1211     -0.0413
            z      -0.0015     -0.0443     -1.9840
  443 O     x      -2.7159      0.0052     -0.0079
            y       0.0101     -2.7121     -0.0005
            z      -0.0042     -0.0011     -2.7385
  444 O     x      -2.7158      0.0057     -0.0032
            y       0.0053     -2.7379     -0.0080
            z      -0.0039     -0.0069     -2.7104
  445 O     x      -2.7837      0.0285     -0.0181
            y       0.0287     -2.6836      0.0345
            z      -0.0159      0.0342     -2.6809
  446 O     x      -3.0433      0.3858     -0.2802
            y       0.3890     -2.5978      0.1393
            z      -0.2464      0.1492     -2.3861
  447 O     x      -2.7282     -0.0007      0.0023
            y      -0.0047     -2.7019      0.0135
            z       0.0023      0.0111     -2.7380
  448 O     x      -2.3178     -0.3991      0.2639
            y      -0.3939     -2.8999     -0.2191
            z       0.2831     -0.1902     -2.8743
  449 O     x      -2.8643     -0.0158      0.0134
            y       0.0201     -2.7815     -0.0062
            z      -0.0151     -0.0083     -2.6462
  450 O     x      -2.7317     -0.0142      0.0113
            y      -0.0150     -2.7030      0.0114
            z       0.0123      0.0107     -2.7281
  451 O     x      -2.4765      0.0250     -0.0002
            y       0.0645     -2.7762     -0.2479
            z       0.0030     -0.2613     -2.8662
  452 O     x      -2.7567      0.0139      0.0113
            y      -0.0155     -2.6686      0.0385
            z       0.0002      0.0206     -2.7477
  453 O     x      -2.7337     -0.0064      0.0030
            y      -0.0090     -2.7113     -0.0348
            z       0.0134      0.0164     -2.7128
  454 O     x      -2.6551      0.2439     -0.0343
            y       0.2498     -2.9427     -0.0763
            z      -0.0184     -0.0336     -2.5126
  455 O     x      -2.6532     -0.0205      0.0186
            y      -0.0197     -2.6341     -0.0425
            z       0.0173     -0.0012     -2.8296
  456 O     x      -2.7325      0.0064     -0.0033
            y       0.0077     -2.7215      0.0016
            z      -0.0053      0.0015     -2.7113
  457 O     x      -2.7321     -0.0035     -0.0192
            y      -0.0029     -2.8135     -0.0365
            z       0.0099     -0.0441     -2.6220
  458 O     x      -2.7261      0.0261      0.0013
            y      -0.0189     -2.7794     -0.0317
            z       0.0367     -0.0163     -2.6726
  459 O     x      -2.7843      0.0252      0.0033
            y      -0.0016     -2.6736      0.0449
            z      -0.0049      0.0224     -2.7173
  460 O     x      -2.7216     -0.0110      0.0068
            y      -0.0086     -2.7030      0.0112
            z       0.0089      0.0085     -2.7422
  461 O     x      -2.7319      0.0080     -0.0049
            y       0.0086     -2.7238      0.0027
            z      -0.0053      0.0044     -2.7096
  462 O     x      -2.7119     -0.0153      0.0096
            y      -0.0138     -2.7166     -0.0011
            z       0.0109     -0.0023     -2.7362
  463 O     x      -2.7447     -0.0029      0.0023
            y      -0.0035     -2.7180      0.0073
            z       0.0017      0.0042     -2.6991
  464 O     x      -2.7567      0.0234     -0.0134
            y       0.0203     -2.7107      0.0150
            z      -0.0333      0.0296     -2.6869
  465 O     x      -2.7171      0.0049     -0.0030
            y       0.0058     -2.7372     -0.0060
            z      -0.0027     -0.0060     -2.7122
  466 O     x      -2.7108     -0.0055      0.0056
            y      -0.0059     -2.7113      0.0057
            z       0.0053      0.0033     -2.7450
  467 O     x      -2.7304     -0.0045      0.0060
            y      -0.0054     -2.7449      0.0010
            z       0.0031      0.0005     -2.6882
  468 O     x      -2.7163      0.0059     -0.0016
            y       0.0039     -2.7354     -0.0075
            z      -0.0032     -0.0122     -2.7202
  469 O     x      -2.6655      0.0287     -0.0275
            y       0.0074     -2.7063     -0.0036
            z      -0.0455      0.0120     -2.7760
  470 O     x      -2.7281      0.0081     -0.0052
            y       0.0095     -2.7253      0.0001
            z      -0.0083     -0.0011     -2.7127
  471 O     x      -2.7158      0.0005     -0.0024
            y       0.0009     -2.7208     -0.0027
            z      -0.0020     -0.0014     -2.7310
  472 O     x      -2.6945      0.0460     -0.0301
            y       0.0231     -2.7260     -0.0103
            z      -0.0091     -0.0061     -2.7504
  473 O     x      -2.7365      0.0005      0.0214
            y       0.0026     -2.7655     -0.0223
            z      -0.0105     -0.0095     -2.6645
  474 O     x      -2.7293     -0.0015      0.0010
            y       0.0021     -2.7213      0.0018
            z       0.0028     -0.0016     -2.7146
  475 O     x      -2.7290      0.0041     -0.0033
            y       0.0048     -2.7203      0.0008
            z      -0.0033      0.0014     -2.7164
  476 O     x      -2.7218     -0.0474      0.0203
            y      -0.0452     -2.7596     -0.0064
            z       0.0163     -0.0062     -2.6434
  477 O     x      -2.7443     -0.0031      0.0016
            y      -0.0005     -2.7261      0.0109
            z      -0.0002      0.0124     -2.6974
  478 O     x      -2.7374     -0.0132      0.0075
            y      -0.0140     -2.7226      0.0051
            z       0.0066      0.0056     -2.7031
  479 O     x      -2.7221      0.0064     -0.0023
            y       0.0059     -2.7367     -0.0014
            z      -0.0033     -0.0019     -2.7066
  480 O     x      -2.7073      0.0146     -0.0119
            y       0.0148     -2.7341     -0.0083
            z      -0.0096     -0.0069     -2.7256
  481 O     x      -2.6964     -0.0116     -0.0142
            y       0.0059     -2.7920     -0.0195
            z      -0.0331     -0.0688     -2.7086
  482 O     x      -2.7060     -0.0035      0.0002
            y      -0.0020     -2.7380     -0.0102
            z       0.0012     -0.0115     -2.7150
  483 O     x      -2.7395      0.0248     -0.0431
            y       0.0607     -2.7054      0.0322
            z      -0.0323      0.0250     -2.7395
  484 O     x      -2.7716     -0.0230      0.0157
            y      -0.0220     -2.7097      0.0208
            z       0.0334      0.0352     -2.6775
  485 O     x      -2.7072     -0.0073      0.0046
            y      -0.0074     -2.7204     -0.0013
            z       0.0063     -0.0045     -2.7381
  486 O     x      -2.7178      0.0139     -0.0073
            y       0.0153     -2.7327     -0.0001
            z      -0.0069      0.0009     -2.7124
  487 O     x      -2.7211      0.0106     -0.0109
            y       0.0120     -2.6985      0.0097
            z      -0.0116      0.0110     -2.7441
  488 O     x      -2.7423      0.0026      0.0009
            y      -0.0001     -2.6796      0.0072
            z       0.0005      0.0331     -2.7550
  489 O     x      -2.6871     -0.1055      0.2024
            y      -0.1090     -2.5569      0.1169
            z       0.2032      0.1233     -2.9096
  490 O     x      -2.6667     -0.0190      0.0190
            y      -0.0468     -2.6661     -0.0122
            z       0.0123      0.0057     -2.8379
  491 O     x      -2.7251     -0.0033      0.0012
            y      -0.0001     -2.7536     -0.0097
            z      -0.0019     -0.0067     -2.6878
  492 O     x      -2.7374     -0.0601      0.0582
            y      -0.0210     -2.6082      0.0257
            z       0.0341      0.0237     -2.7234
  493 O     x      -2.7085      0.0050     -0.0049
            y       0.0064     -2.7275     -0.0050
            z      -0.0032     -0.0038     -2.7320
  494 O     x      -2.6509      0.1683      0.1249
            y       0.0503     -3.0108     -0.1997
            z       0.0854     -0.2783     -2.7294
  495 O     x      -2.6985     -0.0038      0.0025
            y       0.0013     -2.7312     -0.0113
            z       0.0005     -0.0127     -2.7396
  496 O     x      -2.6993     -0.0216      0.0176
            y      -0.0266     -2.7162     -0.0085
            z       0.0174     -0.0122     -2.7472
  497 O     x      -2.7215      0.0015      0.0001
            y      -0.0002     -2.7563     -0.0135
            z       0.0051     -0.0140     -2.6905
  498 O     x      -2.7333      0.0049     -0.0021
            y       0.0060     -2.6434      0.0221
            z      -0.0151      0.0460     -2.8055
  499 O     x      -2.7629      0.0237     -0.0190
            y       0.0169     -2.7292      0.0177
            z      -0.0094      0.0197     -2.6810
  500 O     x      -2.6881      0.0037     -0.0034
            y       0.0028     -2.6831     -0.0507
            z      -0.0033     -0.0020     -2.7632
  501 O     x      -2.7413      0.0003      0.0026
            y       0.0006     -2.7241      0.0034
            z      -0.0016      0.0031     -2.6983
  502 O     x      -2.7479     -0.0461      0.0444
            y      -0.0115     -2.6803      0.0260
            z       0.0372      0.0214     -2.7559
  503 O     x      -2.7131      0.0012      0.0014
            y      -0.0003     -2.7251     -0.0047
            z      -0.0000     -0.0040     -2.7282
  504 O     x      -3.0001     -0.3704      0.2601
            y      -0.3707     -2.5706      0.1480
            z       0.2507      0.1467     -2.4340
  505 O     x      -2.8504     -0.1762      0.1082
            y      -0.2644     -2.7879      0.2353
            z       0.2059      0.2099     -2.7598
  506 O     x      -2.7167     -0.0070      0.0040
            y      -0.0075     -2.7158      0.0007
            z       0.0067      0.0010     -2.7328
  507 O     x      -2.7154      0.0258     -0.0486
            y       0.0388     -2.6787     -0.0061
            z      -0.0401      0.0292     -2.7953
  508 O     x      -2.7644     -0.0280      0.0167
            y       0.0109     -2.6990     -0.0039
            z      -0.0087     -0.0096     -2.6744
  509 O     x      -2.7024     -0.0353      0.0334
            y      -0.0618     -2.7206     -0.0181
            z       0.0236      0.0003     -2.7504
  510 O     x      -2.7333     -0.0149      0.0088
            y      -0.0129     -2.7307      0.0050
            z       0.0102      0.0055     -2.7021
  511 O     x      -2.7554     -0.0110      0.0097
            y      -0.0077     -2.7070      0.0101
            z       0.0060      0.0100     -2.7071
  512 O     x      -2.7324     -0.0074      0.0059
            y      -0.0087     -2.7190      0.0074
            z       0.0060      0.0042     -2.7167
  513 O     x      -2.7145      0.0159     -0.0109
            y       0.0159     -2.7039      0.0079
            z      -0.0109      0.0021     -2.7501
  514 O     x      -2.7165      0.0220     -0.0339
            y       0.0220     -2.7529     -0.0240
            z      -0.0118     -0.0114     -2.7082
  515 O     x      -2.7024     -0.0081      0.0035
            y      -0.0081     -2.7086      0.0053
            z       0.0070      0.0025     -2.7558
  516 O     x      -2.6960      0.0195     -0.0336
            y       0.0180     -2.6575      0.0234
            z      -0.0285      0.0249     -2.7766
  517 O     x      -2.7645      0.0051     -0.0032
            y       0.0052     -2.6929      0.0127
            z      -0.0023      0.0445     -2.7212
  518 O     x      -2.7234      0.0051     -0.0037
            y       0.0065     -2.7210      0.0002
            z      -0.0038     -0.0001     -2.7217
  519 O     x      -2.7241     -0.0055      0.0042
            y      -0.0073     -2.7288     -0.0023
            z       0.0078     -0.0040     -2.7119
  520 O     x      -2.7116     -0.0163      0.0104
            y      -0.0158     -2.7311     -0.0059
            z       0.0124     -0.0082     -2.7195
  521 O     x      -2.6889      0.0085     -0.0091
            y       0.0109     -2.6759      0.0053
            z      -0.0013      0.0012     -2.8087
  522 O     x      -2.7065     -0.0008     -0.0007
            y      -0.0003     -2.7506     -0.0175
            z      -0.0027     -0.0177     -2.7095
  523 O     x      -2.7107      0.0082     -0.0075
            y       0.0127     -2.7269     -0.0091
            z      -0.0141     -0.0117     -2.7292
  524 O     x      -2.7313     -0.0034      0.0013
            y      -0.0046     -2.7161      0.0013
            z       0.0017      0.0026     -2.7182
  525 O     x      -2.6938      0.0019      0.0046
            y      -0.0064     -2.7553     -0.0187
            z       0.0058     -0.0149     -2.7199
  526 O     x      -2.6978      0.0015     -0.0046
            y       0.0024     -2.7208     -0.0121
            z      -0.0038     -0.0129     -2.7471
  527 O     x      -3.0851     -0.0251      0.0165
            y      -0.0519     -3.0053      0.0005
            z       0.0124      0.0235     -1.9954
  528 O     x      -2.7100      0.0055     -0.0083
            y       0.0078     -2.7177      0.0011
            z      -0.0067      0.0017     -2.7405
  529 O     x      -2.6944     -0.0078      0.0508
            y      -0.0075     -2.7049      0.0240
            z       0.0131      0.0022     -2.7386
  530 O     x      -2.6970     -0.0029      0.0450
            y      -0.0031     -2.6833      0.0333
            z       0.0049      0.0127     -2.7569
  531 O     x      -2.7261     -0.0074      0.0070
            y      -0.0083     -2.7222      0.0021
            z       0.0061      0.0017     -2.7179
  532 O     x      -2.6909     -0.0345      0.0313
            y      -0.0608     -2.7385     -0.0296
            z       0.0219     -0.0183     -2.7480
  533 O     x      -2.7113     -0.0403      0.0198
            y      -0.0381     -2.7452     -0.0081
            z       0.0476     -0.0277     -2.7142
  534 O     x      -3.0480      0.2591     -0.0595
            y       0.2472     -2.7031      0.0485
            z       0.0681     -0.0191     -2.6302
  535 O     x      -2.7190      0.0026     -0.0002
            y       0.0003     -2.7370     -0.0073
            z       0.0008     -0.0063     -2.7096
  536 O     x      -2.7384     -0.0076      0.0040
            y      -0.0123     -2.7128      0.0028
            z       0.0022      0.0114     -2.7168
  537 O     x      -2.7204     -0.0058      0.0050
            y      -0.0076     -2.7384     -0.0022
            z       0.0081     -0.0031     -2.7064
  538 O     x      -2.7845      0.0207     -0.0259
            y       0.0249     -2.7088      0.0274
            z      -0.0199      0.0193     -2.6784
  539 O     x      -2.6986      0.0381     -0.0348
            y       0.0652     -2.7192     -0.0200
            z      -0.0254      0.0001     -2.7551

  Time to end of optimisation =       9.0777 seconds

  Timing analysis for GULP :

  Task / Subroutine                                          Time (Seconds)
  Calculation of reciprocal space energy and derivatives          0.3837
  Calculation of real space energy and derivatives                1.9187
  Calculation and manipulation of Hessian matrix                  0.0016
  Calculation of matrix inversion                                 5.4919
  Global summation overhead                                       0.0708

  Job Finished at 16:21.11 26th June       2024