  Job Started  at 16:20.59 26th June       2024

  Number of CPUs =   128

  Host name      = nid001986

  Total number of configurations input =      1

*  Input for Configuration =   1 : CeO2                                        *

  Formula = TcMn23LiO48

  Number of irreducible atoms/shells =     122

  Total number atoms/shells =     122

  Dimensionality = 3               :  Bulk

  Cartesian lattice vectors (Angstroms) :

        8.872900    0.000000    0.000000
        0.000000    9.432400    0.000000
        0.000000    0.000000    8.565900

  Cell parameters (Angstroms/Degrees):

  a =       8.8729    alpha =  90.0000
  b =       9.4324    beta  =  90.0000
  c =       8.5659    gamma =  90.0000

  Initial cell volume =         716.903627 Angs**3

  Temperature of configuration =   0.00     K

  Pressure of configuration =         0.000 GPa

  Fractional coordinates of asymmetric unit :

   No.  Atomic       x           y          z         Charge      Occupancy
        Label      (Frac)      (Frac)     (Frac)        (e)         (Frac)
      1 Tc    c    0.120300 *  0.006500 *  0.083330 *   1.97100    1.000000
      2 Mn    c    0.337390 *  0.256500 *  0.250000 *   4.00000    1.000000
      3 Mn    c    0.620300 *  0.243500 *  0.083330 *   4.00000    1.000000
      4 Mn    c    0.837390 *  0.493500 *  0.250000 *   4.00000    1.000000
      5 Mn    c    0.120300 *  0.506500 *  0.083330 *   4.00000    1.000000
      6 Mn    c    0.337390 *  0.756500 *  0.250000 *   4.00000    1.000000
      7 Mn    c    0.620300 *  0.743500 *  0.083330 *   4.00000    1.000000
      8 Mn    c    0.837390 *  0.993500 *  0.250000 *   4.00000    1.000000
      9 Mn    c    0.120300 *  0.006500 *  0.416670 *   4.00000    1.000000
     10 Mn    c    0.337390 *  0.256500 *  0.583330 *   4.00000    1.000000
     11 Mn    c    0.620300 *  0.243500 *  0.416670 *   4.00000    1.000000
     12 Mn    c    0.837390 *  0.493500 *  0.583330 *   4.00000    1.000000
     13 Mn    c    0.120300 *  0.506500 *  0.416670 *   4.00000    1.000000
     14 Mn    c    0.337390 *  0.756500 *  0.583330 *   4.00000    1.000000
     15 Mn    c    0.620300 *  0.743500 *  0.416670 *   4.00000    1.000000
     16 Mn    c    0.837390 *  0.993500 *  0.583330 *   4.00000    1.000000
     17 Mn    c    0.120300 *  0.006500 *  0.750000 *   4.00000    1.000000
     18 Mn    c    0.337390 *  0.256500 *  0.916670 *   4.00000    1.000000
     19 Mn    c    0.620300 *  0.243500 *  0.750000 *   4.00000    1.000000
     20 Mn    c    0.837390 *  0.493500 *  0.916670 *   4.00000    1.000000
     21 Mn    c    0.120300 *  0.506500 *  0.750000 *   4.00000    1.000000
     22 Mn    c    0.337390 *  0.756500 *  0.916670 *   4.00000    1.000000
     23 Mn    c    0.620300 *  0.743500 *  0.750000 *   4.00000    1.000000
     24 Mn    c    0.837390 *  0.993500 *  0.916670 *   4.00000    1.000000
     25 Li    c    0.000000 *  0.000000 *  0.000000 *   1.00000    1.000000
     26 O     c    0.025370 *  0.099950 *  0.250000 *   0.51300    1.000000
     27 O     c    0.432320 *  0.349950 *  0.083330 *   0.51300    1.000000
     28 O     c    0.525370 *  0.150050 *  0.250000 *   0.51300    1.000000
     29 O     c    0.932320 *  0.400050 *  0.083330 *   0.51300    1.000000
     30 O     c    0.251790 *  0.155950 *  0.083330 *   0.51300    1.000000
     31 O     c    0.205900 *  0.405950 *  0.250000 *   0.51300    1.000000
     32 O     c    0.751790 *  0.094050 *  0.083330 *   0.51300    1.000000
     33 O     c    0.705900 *  0.344050 *  0.250000 *   0.51300    1.000000
     34 O     c    0.025370 *  0.599950 *  0.250000 *   0.51300    1.000000
     35 O     c    0.432320 *  0.849950 *  0.083330 *   0.51300    1.000000
     36 O     c    0.525370 *  0.650050 *  0.250000 *   0.51300    1.000000
     37 O     c    0.932320 *  0.900050 *  0.083330 *   0.51300    1.000000
     38 O     c    0.251790 *  0.655950 *  0.083330 *   0.51300    1.000000
     39 O     c    0.205900 *  0.905950 *  0.250000 *   0.51300    1.000000
     40 O     c    0.751790 *  0.594050 *  0.083330 *   0.51300    1.000000
     41 O     c    0.705900 *  0.844050 *  0.250000 *   0.51300    1.000000
     42 O     c    0.025370 *  0.099950 *  0.583330 *   0.51300    1.000000
     43 O     c    0.432320 *  0.349950 *  0.416670 *   0.51300    1.000000
     44 O     c    0.525370 *  0.150050 *  0.583330 *   0.51300    1.000000
     45 O     c    0.932320 *  0.400050 *  0.416670 *   0.51300    1.000000
     46 O     c    0.251790 *  0.155950 *  0.416670 *   0.51300    1.000000
     47 O     c    0.205900 *  0.405950 *  0.583330 *   0.51300    1.000000
     48 O     c    0.751790 *  0.094050 *  0.416670 *   0.51300    1.000000
     49 O     c    0.705900 *  0.344050 *  0.583330 *   0.51300    1.000000
     50 O     c    0.025370 *  0.599950 *  0.583330 *   0.51300    1.000000
     51 O     c    0.432320 *  0.849950 *  0.416670 *   0.51300    1.000000
     52 O     c    0.525370 *  0.650050 *  0.583330 *   0.51300    1.000000
     53 O     c    0.932320 *  0.900050 *  0.416670 *   0.51300    1.000000
     54 O     c    0.251790 *  0.655950 *  0.416670 *   0.51300    1.000000
     55 O     c    0.205900 *  0.905950 *  0.583330 *   0.51300    1.000000
     56 O     c    0.751790 *  0.594050 *  0.416670 *   0.51300    1.000000
     57 O     c    0.705900 *  0.844050 *  0.583330 *   0.51300    1.000000
     58 O     c    0.025370 *  0.099950 *  0.916670 *   0.51300    1.000000
     59 O     c    0.432320 *  0.349950 *  0.750000 *   0.51300    1.000000
     60 O     c    0.525370 *  0.150050 *  0.916670 *   0.51300    1.000000
     61 O     c    0.932320 *  0.400050 *  0.750000 *   0.51300    1.000000
     62 O     c    0.251790 *  0.155950 *  0.750000 *   0.51300    1.000000
     63 O     c    0.205900 *  0.405950 *  0.916670 *   0.51300    1.000000
     64 O     c    0.751790 *  0.094050 *  0.750000 *   0.51300    1.000000
     65 O     c    0.705900 *  0.344050 *  0.916670 *   0.51300    1.000000
     66 O     c    0.025370 *  0.599950 *  0.916670 *   0.51300    1.000000
     67 O     c    0.432320 *  0.849950 *  0.750000 *   0.51300    1.000000
     68 O     c    0.525370 *  0.650050 *  0.916670 *   0.51300    1.000000
     69 O     c    0.932320 *  0.900050 *  0.750000 *   0.51300    1.000000
     70 O     c    0.251790 *  0.655950 *  0.750000 *   0.51300    1.000000
     71 O     c    0.205900 *  0.905950 *  0.916670 *   0.51300    1.000000
     72 O     c    0.751790 *  0.594050 *  0.750000 *   0.51300    1.000000
     73 O     c    0.705900 *  0.844050 *  0.916670 *   0.51300    1.000000
     74 Tc    s    0.120300 *  0.006500 *  0.083330 *   1.02900    1.000000
     75 O     s    0.025370 *  0.099950 *  0.250000 *  -2.51300    1.000000
     76 O     s    0.432320 *  0.349950 *  0.083330 *  -2.51300    1.000000
     77 O     s    0.525370 *  0.150050 *  0.250000 *  -2.51300    1.000000
     78 O     s    0.932320 *  0.400050 *  0.083330 *  -2.51300    1.000000
     79 O     s    0.251790 *  0.155950 *  0.083330 *  -2.51300    1.000000
     80 O     s    0.205900 *  0.405950 *  0.250000 *  -2.51300    1.000000
     81 O     s    0.751790 *  0.094050 *  0.083330 *  -2.51300    1.000000
     82 O     s    0.705900 *  0.344050 *  0.250000 *  -2.51300    1.000000
     83 O     s    0.025370 *  0.599950 *  0.250000 *  -2.51300    1.000000
     84 O     s    0.432320 *  0.849950 *  0.083330 *  -2.51300    1.000000
     85 O     s    0.525370 *  0.650050 *  0.250000 *  -2.51300    1.000000
     86 O     s    0.932320 *  0.900050 *  0.083330 *  -2.51300    1.000000
     87 O     s    0.251790 *  0.655950 *  0.083330 *  -2.51300    1.000000
     88 O     s    0.205900 *  0.905950 *  0.250000 *  -2.51300    1.000000
     89 O     s    0.751790 *  0.594050 *  0.083330 *  -2.51300    1.000000
     90 O     s    0.705900 *  0.844050 *  0.250000 *  -2.51300    1.000000
     91 O     s    0.025370 *  0.099950 *  0.583330 *  -2.51300    1.000000
     92 O     s    0.432320 *  0.349950 *  0.416670 *  -2.51300    1.000000
     93 O     s    0.525370 *  0.150050 *  0.583330 *  -2.51300    1.000000
     94 O     s    0.932320 *  0.400050 *  0.416670 *  -2.51300    1.000000
     95 O     s    0.251790 *  0.155950 *  0.416670 *  -2.51300    1.000000
     96 O     s    0.205900 *  0.405950 *  0.583330 *  -2.51300    1.000000
     97 O     s    0.751790 *  0.094050 *  0.416670 *  -2.51300    1.000000
     98 O     s    0.705900 *  0.344050 *  0.583330 *  -2.51300    1.000000
     99 O     s    0.025370 *  0.599950 *  0.583330 *  -2.51300    1.000000
    100 O     s    0.432320 *  0.849950 *  0.416670 *  -2.51300    1.000000
    101 O     s    0.525370 *  0.650050 *  0.583330 *  -2.51300    1.000000
    102 O     s    0.932320 *  0.900050 *  0.416670 *  -2.51300    1.000000
    103 O     s    0.251790 *  0.655950 *  0.416670 *  -2.51300    1.000000
    104 O     s    0.205900 *  0.905950 *  0.583330 *  -2.51300    1.000000
    105 O     s    0.751790 *  0.594050 *  0.416670 *  -2.51300    1.000000
    106 O     s    0.705900 *  0.844050 *  0.583330 *  -2.51300    1.000000
    107 O     s    0.025370 *  0.099950 *  0.916670 *  -2.51300    1.000000
    108 O     s    0.432320 *  0.349950 *  0.750000 *  -2.51300    1.000000
    109 O     s    0.525370 *  0.150050 *  0.916670 *  -2.51300    1.000000
    110 O     s    0.932320 *  0.400050 *  0.750000 *  -2.51300    1.000000
    111 O     s    0.251790 *  0.155950 *  0.750000 *  -2.51300    1.000000
    112 O     s    0.205900 *  0.405950 *  0.916670 *  -2.51300    1.000000
    113 O     s    0.751790 *  0.094050 *  0.750000 *  -2.51300    1.000000
    114 O     s    0.705900 *  0.344050 *  0.916670 *  -2.51300    1.000000
    115 O     s    0.025370 *  0.599950 *  0.916670 *  -2.51300    1.000000
    116 O     s    0.432320 *  0.849950 *  0.750000 *  -2.51300    1.000000
    117 O     s    0.525370 *  0.650050 *  0.916670 *  -2.51300    1.000000
    118 O     s    0.932320 *  0.900050 *  0.750000 *  -2.51300    1.000000
    119 O     s    0.251790 *  0.655950 *  0.750000 *  -2.51300    1.000000
    120 O     s    0.205900 *  0.905950 *  0.916670 *  -2.51300    1.000000
    121 O     s    0.751790 *  0.594050 *  0.750000 *  -2.51300    1.000000
    122 O     s    0.705900 *  0.844050 *  0.916670 *  -2.51300    1.000000

*  General input information                                                   *

  Species output for all configurations :

  Species    Type    Atomic    Atomic    Charge       Radii (Angs)     Library
                     Number     Mass       (e)     Cova   Ionic  VDW   Symbol
    Tc       Core       43      98.00   1.971000   1.350  0.000  2.010
    Tc       Shell      43       0.00   1.029000   1.350  0.000  0.000
    Mn       Core       25      54.94   4.000000   1.350  0.000  2.010
    O        Core        8      16.00   0.513000   0.730  0.000  1.360
    O        Shell       8       0.00  -2.513000   0.730  0.000  0.000
    Li       Core        3       6.94   1.000000   0.680  0.000  1.800

  Lattice summation method               =    Ewald          (3-D)
                                         =    Parry          (2-D)
[...]
     56 O     c      -0.000285     -0.000029     -0.000121      0.000000
     57 O     c       0.000194     -0.000260     -0.000094      0.000000
     58 O     c      -0.000275     -0.000269      0.000584      0.000000
     59 O     c       0.000796     -0.000521     -0.000041      0.000000
     60 O     c      -0.000641      0.000449      0.000113      0.000000
     61 O     c       0.000865      0.000499      0.000025      0.000000
     62 O     c       0.000082     -0.000244      0.000080      0.000000
     63 O     c       0.000033      0.000037      0.000207      0.000000
     64 O     c      -0.000418     -0.000197      0.000122      0.000000
     65 O     c       0.000401     -0.000364      0.000081      0.000000
     66 O     c      -0.000613     -0.000490     -0.000140      0.000000
     67 O     c       0.000468     -0.000184     -0.000057      0.000000
     68 O     c      -0.000370      0.000768     -0.000061      0.000000
     69 O     c      -0.000100      0.000304      0.000054      0.000000
     70 O     c      -0.000483      0.000489     -0.000148      0.000000
     71 O     c       0.000463      0.000641     -0.000007      0.000000
     72 O     c      -0.000215     -0.000182      0.000164      0.000000
     73 O     c       0.000299     -0.000266     -0.000168      0.000000
     74 Tc    s      -0.000421      0.002538      0.000585      0.000000
     75 O     s      -0.000222      0.000438     -0.000669      0.000000
     76 O     s      -0.000804     -0.000638      0.000049      0.000000
     77 O     s       0.000842      0.000407      0.000178      0.000000
     78 O     s      -0.000663     -0.000815     -0.000294      0.000000
     79 O     s       0.000150      0.001632     -0.000215      0.000000
     80 O     s       0.000097      0.001202     -0.000096      0.000000
     81 O     s      -0.000061     -0.000377     -0.000348      0.000000
     82 O     s      -0.000530     -0.001517     -0.000024      0.000000
     83 O     s       0.001167     -0.001133      0.000381      0.000000
     84 O     s      -0.000619     -0.000370     -0.000354      0.000000
     85 O     s       0.000596     -0.000299     -0.000089      0.000000
     86 O     s      -0.000574      0.001278     -0.000417      0.000000
     87 O     s       0.001274      0.000508     -0.000054      0.000000
     88 O     s       0.000011      0.001348      0.000349      0.000000
     89 O     s      -0.000243     -0.002131      0.000117      0.000000
     90 O     s      -0.000541     -0.000944      0.000293      0.000000
     91 O     s       0.000872     -0.000012      0.000261      0.000000
     92 O     s      -0.001279     -0.000836      0.000265      0.000000
     93 O     s       0.000699      0.000769     -0.000243      0.000000
     94 O     s      -0.000591     -0.000772      0.000174      0.000000
     95 O     s       0.000050      0.001703      0.000226      0.000000
     96 O     s      -0.000309      0.001456      0.000117      0.000000
     97 O     s       0.000569     -0.001115     -0.000236      0.000000
     98 O     s      -0.000009     -0.001733     -0.000071      0.000000
     99 O     s       0.000771     -0.000697      0.000008      0.000000
    100 O     s      -0.000476     -0.000189      0.000242      0.000000
    101 O     s       0.000562      0.000480      0.000279      0.000000
    102 O     s      -0.001809      0.001197      0.000555      0.000000
    103 O     s       0.000475      0.000631      0.000200      0.000000
    104 O     s      -0.000264      0.001044     -0.000254      0.000000
    105 O     s      -0.000142     -0.001673      0.000075      0.000000
    106 O     s      -0.000208     -0.001043      0.000041      0.000000
    107 O     s       0.000274      0.000841      0.000262      0.000000
    108 O     s      -0.000584     -0.000324     -0.000294      0.000000
    109 O     s       0.000827      0.000912      0.000001      0.000000
    110 O     s      -0.000752     -0.000371     -0.000002      0.000000
    111 O     s      -0.000417      0.001334     -0.000021      0.000000
    112 O     s       0.000052      0.001583     -0.000154      0.000000
    113 O     s       0.000208     -0.000724      0.000467      0.000000
    114 O     s      -0.000363     -0.001212      0.000123      0.000000
    115 O     s       0.001079     -0.001096     -0.000633      0.000000
    116 O     s      -0.000453     -0.000575      0.000099      0.000000
    117 O     s      -0.000345     -0.000188      0.000021      0.000000
    118 O     s      -0.001124      0.000554     -0.000133      0.000000
    119 O     s       0.000983      0.000478     -0.000220      0.000000
    120 O     s       0.000030      0.001264     -0.000027      0.000000
    121 O     s      -0.000362     -0.001695     -0.000165      0.000000
    122 O     s      -0.001128     -0.001295     -0.000305      0.000000
  Maximum abs         0.002074      0.002538      0.000669      0.000000

  Born effective charge tensors :

  Atom             x           y             z
    1 Tc    x       3.3751      0.2500      0.0906
            y       0.5087      2.4637      0.0169
            z       0.1366     -0.0087      3.7553
    2 Mn    x       2.3909     -0.7107     -0.9638
            y      -0.7041      1.7259     -1.0230
            z      -0.6009     -0.6889      2.2001
    3 Mn    x       1.9838     -0.0919     -0.0003
            y      -0.3159      1.6463      0.2641
            z       0.0157      0.0369      2.1767
    4 Mn    x       2.3821      0.5918     -0.1185
            y       0.5643      1.7349      0.0004
            z      -0.1184      0.0101      2.3140
    5 Mn    x       2.4340      0.6677      0.1814
            y       0.4760      1.6126     -0.1214
            z       0.1567     -0.1645      2.0694
    6 Mn    x       2.3688      0.1513     -0.0710
            y       0.0006      1.3972      0.2440
            z      -0.0546      0.2908      2.8215
    7 Mn    x       2.8892     -1.1787      0.0854
            y      -0.9135      1.8963      0.2000
            z       0.1901      0.2653      2.0305
    8 Mn    x       1.7494      0.0713      0.4053
            y       0.1571      2.1379     -0.2022
            z       0.3033     -0.2246      2.6284
    9 Mn    x       3.2195      1.3626      0.3673
            y       1.2559      2.2728     -0.1557
            z       0.1885     -0.3474      1.0998
   10 Mn    x       2.4746     -0.9990     -0.0623
            y      -0.9776      1.6857     -0.0200
            z      -0.0386     -0.0956      1.9951
   11 Mn    x       2.7140     -0.5937     -0.0134
            y      -0.4707      2.0172     -0.0430
            z      -0.1042     -0.0211      2.3848
   12 Mn    x       2.5772      0.6689      0.1360
            y       0.6238      1.9136     -0.0453
            z       0.1256     -0.0571      2.4299
   13 Mn    x       2.5215      0.4768      0.1381
            y       0.4715      1.8051     -0.0613
            z       0.0530     -0.0417      2.3776
   14 Mn    x       2.9802     -0.8793     -0.0674
            y      -0.8839      2.0937     -0.0359
            z      -0.0354     -0.0118      2.2913
   15 Mn    x       2.2577     -0.3923      0.0642
            y      -0.4506      1.9448      0.0549
            z       0.0374      0.0526      2.3519
   16 Mn    x       2.3786      0.2862      0.1712
            y       0.2855      1.9427     -0.0531
            z       0.1275     -0.0692      2.5695
   17 Mn    x       3.0874      1.0334     -0.4674
            y       1.0588      2.0182      0.1060
            z      -0.3479      0.2281      1.0286
   18 Mn    x       2.4302     -0.7553      0.8920
            y      -0.8037      1.8730      0.9421
            z       0.6202      0.7674      2.1160
   19 Mn    x       2.5899     -0.6573      0.0100
            y      -0.5238      1.8919     -0.2109
            z       0.0497      0.0433      2.1920
   20 Mn    x       2.3532      0.6275     -0.0377
            y       0.6395      1.4568      0.0602
            z      -0.0037      0.0418      1.8573
   21 Mn    x       2.3171      0.6372     -0.3334
            y       0.5969      1.5653      0.1529
            z      -0.2328      0.1958      2.1243
   22 Mn    x       2.1968     -0.2619      0.2438
            y      -0.2053      1.2820     -0.1497
            z       0.1397     -0.2062      2.2449
   23 Mn    x       2.3707     -0.8412     -0.1253
            y      -0.8063      1.7710     -0.2508
            z      -0.2094     -0.3220      2.0234
   24 Mn    x       1.6772      1.2533     -0.5410
            y       1.0591      2.0196      0.1947
            z      -0.3979      0.2386      1.3302
   25 Li    x       1.1638     -0.1831     -0.0597
            y      -0.0347      1.4858     -0.0387
            z      -0.0612     -0.0880      0.9485
   26 O     x      -1.2847     -0.1563      0.0438
            y      -0.0280     -0.6840     -0.0775
            z       0.0279     -0.0770     -0.8669
   27 O     x      -1.2521      0.2011      0.0159
            y       0.0729     -0.5643     -0.0065
            z       0.0220      0.0037     -0.8049
   28 O     x      -1.3816      0.1962      0.0330
            y       0.0040     -0.6233      0.0177
            z       0.0137      0.0316     -0.6341
   29 O     x      -1.4911     -0.2316      0.0757
            y       0.0101     -0.6551      0.0177
            z       0.0701      0.0112     -0.7085
   30 O     x      -0.9548     -0.1768     -0.0132
            y      -0.0984     -0.9618     -0.0100
            z       0.0032     -0.0062     -1.2486
   31 O     x      -1.0310      0.4380      0.0426
            y       0.3981     -1.1522     -0.0036
            z       0.0319     -0.0025     -1.4841
   32 O     x      -0.9158      0.3747     -0.1611
            y       0.3551     -1.1461      0.2244
            z      -0.1054      0.2169     -1.6228
   33 O     x      -1.0538     -0.5271      0.0641
            y      -0.4211     -1.2326      0.0844
            z       0.0569      0.0916     -1.6617
   34 O     x      -1.4089     -0.2117     -0.0216
            y       0.0149     -0.6151      0.0281
            z      -0.0232      0.0294     -0.6983
   35 O     x      -1.6320      0.2376     -0.0053
            y      -0.0413     -0.5949      0.0177
            z      -0.0315     -0.0156     -0.6729
   36 O     x      -1.5363      0.2231     -0.0488
            y      -0.0078     -0.6331     -0.0221
            z      -0.0402     -0.0144     -0.6793
   37 O     x      -1.4140     -0.1784      0.0591
            y      -0.1714     -0.9093     -0.1104
            z       0.0343     -0.0665     -0.6929
   38 O     x      -1.1635     -0.5968     -0.1378
            y      -0.4220     -1.2017     -0.0345
            z      -0.0970     -0.0418     -1.7613
   39 O     x      -0.9792      0.2230     -0.0623
            y       0.2017     -1.0662      0.0105
            z      -0.0511      0.0760     -1.3114
   40 O     x      -1.1506      0.5602      0.0671
            y       0.4596     -1.3758      0.0216
            z       0.0309      0.0019     -1.6152
   41 O     x      -1.0372     -0.4768     -0.0355
            y      -0.4057     -1.2607     -0.0340
            z      -0.0261     -0.0081     -1.5547
   42 O     x      -1.5719     -0.3119      0.0663
            y      -0.0757     -0.6869      0.0207
            z       0.0798      0.0032     -0.6437
   43 O     x      -1.5581      0.2090      0.0497
            y      -0.0529     -0.6614      0.0225
            z       0.1258      0.0572     -0.6281
   44 O     x      -1.4448      0.2216      0.0187
            y       0.0159     -0.6295      0.0023
            z       0.0296     -0.0071     -0.5879
   45 O     x      -1.4610     -0.2115     -0.0017
            y      -0.0116     -0.6236      0.0036
            z      -0.0102      0.0073     -0.6653
   46 O     x      -1.2469     -0.7540      0.1944
            y      -0.5928     -1.5309      0.2016
            z       0.1499      0.2346     -1.5775
   47 O     x      -1.0861      0.5319     -0.0667
            y       0.4500     -1.2807      0.0686
            z      -0.0417      0.0754     -1.4823
   48 O     x      -1.0305      0.5438     -0.0300
            y       0.4331     -1.3198      0.0133
            z      -0.0281      0.0335     -1.6478
   49 O     x      -1.0813     -0.5413     -0.0405
            y      -0.4445     -1.2608     -0.0463
            z      -0.0159     -0.0620     -1.5731
   50 O     x      -1.4284     -0.1943      0.0070
            y       0.0081     -0.6399     -0.0221
            z       0.0001     -0.0100     -0.6876
   51 O     x      -1.2641      0.1693      0.0071
            y      -0.0291     -0.6065     -0.0187
            z       0.0184     -0.0199     -0.6313
   52 O     x      -1.5839      0.2433      0.0175
            y       0.0384     -0.6406      0.0015
            z       0.0026      0.0070     -0.6339
   53 O     x      -1.5644     -0.2478     -0.1175
            y      -0.0746     -0.6786     -0.0019
            z      -0.0757      0.0393     -0.6075
   54 O     x      -1.0479     -0.4467      0.0370
            y      -0.3897     -1.1869      0.0106
            z       0.0209      0.0085     -1.6359
   55 O     x      -1.0997      0.5095      0.0240
            y       0.3959     -1.3116     -0.0127
            z       0.0321     -0.0466     -1.3889
   56 O     x      -1.0870      0.5118     -0.0019
            y       0.4090     -1.2352      0.0070
            z      -0.0168      0.0181     -1.6033
   57 O     x      -1.0128     -0.4443     -0.0404
            y      -0.3715     -1.2087     -0.0021
            z      -0.0232     -0.0198     -1.5616
   58 O     x      -1.3137     -0.1567     -0.0783
            y      -0.0184     -0.7367      0.0678
            z      -0.0819      0.0792     -0.8496
   59 O     x      -1.5202      0.1994     -0.0535
            y       0.0074     -0.6727     -0.0156
            z      -0.1225     -0.0527     -0.6579
   60 O     x      -1.3676      0.2239     -0.0456
            y       0.0819     -0.6405     -0.0160
            z      -0.0367     -0.0305     -0.6819
   61 O     x      -1.4494     -0.2230     -0.0753
            y      -0.0071     -0.6446     -0.0230
            z      -0.0619     -0.0190     -0.7041
   62 O     x      -1.1364     -0.6016     -0.0835
            y      -0.4833     -1.3951     -0.0996
            z      -0.1027     -0.1560     -1.6298
   63 O     x      -1.0944      0.4801      0.0090
            y       0.4398     -1.1792     -0.0419
            z       0.0053     -0.0528     -1.4384
   64 O     x      -1.0092      0.5127      0.1828
            y       0.3964     -1.2201     -0.1866
            z       0.1273     -0.2271     -1.4623
   65 O     x      -0.9319     -0.3153     -0.0183
            y      -0.2845     -1.0939     -0.0283
            z      -0.0350     -0.0235     -1.6427
   66 O     x      -1.6160     -0.2027      0.0168
            y      -0.0103     -0.7432     -0.0154
            z       0.0170     -0.0207     -0.8504
   67 O     x      -1.3419      0.1928     -0.0055
            y      -0.0099     -0.5996     -0.0018
            z      -0.0028      0.0277     -0.6145
   68 O     x      -1.4764      0.1807      0.0309
            y      -0.0753     -0.6257      0.0222
            z       0.0337      0.0102     -0.7056
   69 O     x      -1.7200     -0.2273      0.0835
            y      -0.0848     -0.7755      0.1014
            z       0.0615      0.0291     -0.7455
   70 O     x      -1.1184     -0.4665      0.0392
            y      -0.4099     -1.1984     -0.0052
            z       0.0455      0.0262     -1.6037
   71 O     x      -1.1880      0.2710      0.0120
            y       0.2635     -1.1879      0.0521
            z       0.0160      0.0190     -1.3060
   72 O     x      -1.1252      0.5098     -0.0477
            y       0.4166     -1.2969     -0.0418
            z      -0.0101     -0.0168     -1.5683
   73 O     x      -1.2188     -0.5976      0.0705
            y      -0.4585     -1.4664      0.0354
            z       0.0443      0.0353     -1.3272

  Time to end of optimisation =       2.6163 seconds

  Timing analysis for GULP :

  Task / Subroutine                                          Time (Seconds)
  Calculation of reciprocal space energy and derivatives          0.0623
  Calculation of real space energy and derivatives                0.5216
  Calculation and manipulation of Hessian matrix                  0.0029
  Calculation of matrix inversion                                 1.3518
  Global summation overhead                                       0.3835

  Job Finished at 16:21.02 26th June       2024